instances/knapsack/discrete_knapsack_uncertainty/knapsack_130_20.lp
\ Model knapsack_130_20
\ LP format - for model browsing. Use MPS format to capture full model detail.
\ Signature: 0x8c644a484ac146d4
Minimize
  - x[0] - 70 x[1] - 91 x[2] - 7 x[3] - 81 x[4] - 36 x[5] - 33 x[6]
   - 15 x[7] - 82 x[8] - 38 x[9] - 58 x[10] - 6 x[11] - 26 x[12] - x[13]
   - 98 x[14] - 51 x[15] - 41 x[16] - 53 x[17] - 38 x[18] - 89 x[19]
   - 9 x[20] - 2 x[21] - 27 x[22] - 43 x[23] - 68 x[24] - 62 x[25]
   - 31 x[26] - 63 x[27] - 13 x[28] - 32 x[29] - 16 x[30] - 27 x[31]
   - 27 x[32] - 14 x[33] - 75 x[34] - 72 x[35] - 48 x[36] - 82 x[37]
   - 50 x[38] - 31 x[39] - 47 x[40] - 21 x[41] - 85 x[42] - 78 x[43]
   - 6 x[44] - 6 x[45] - 72 x[46] - 100 x[47] - 12 x[48] - 65 x[49]
   - 10 x[50] - 78 x[51] - 42 x[52] - 60 x[53] - 43 x[54] - 21 x[55]
   - 26 x[56] - 27 x[57] - 63 x[58] - 62 x[59] - 15 x[60] - 93 x[61]
   - 41 x[62] - 41 x[63] - 98 x[64] - 76 x[65] - 4 x[66] - 17 x[67]
   - 4 x[68] - 69 x[69] - 20 x[70] - 46 x[71] - 48 x[72] - 97 x[73]
   - 22 x[74] - 85 x[75] - 77 x[76] - 92 x[77] - 39 x[78] - 31 x[79]
   - 94 x[80] - 29 x[81] - 69 x[82] - 81 x[83] - 84 x[84] - 8 x[85]
   - 97 x[86] - 50 x[87] - 71 x[88] - 70 x[89] - 65 x[90] - 29 x[91]
   - 97 x[92] - 16 x[93] - 83 x[94] - 18 x[95] - 52 x[96] - 7 x[97]
   - 92 x[98] - 48 x[99] - 40 x[100] - 21 x[101] - 30 x[102] - 57 x[103]
   - 90 x[104] - 30 x[105] - 45 x[106] - 80 x[107] - 81 x[108] - 64 x[109]
   - 77 x[110] - 41 x[111] - 73 x[112] - 43 x[113] - 69 x[114] - 100 x[115]
   - 98 x[116] - 100 x[117] - 25 x[118] - 82 x[119] - 89 x[120] - 46 x[121]
   - 53 x[122] - 66 x[123] - 15 x[124] - 60 x[125] - 64 x[126] - 9 x[127]
   - 27 x[128] - 4 x[129]
Subject To
 primal_upper: 27 x[0] + 71 x[1] + 41 x[2] + 30 x[3] + 55 x[4] + 97 x[5]
   + 72 x[6] + 35 x[7] + 80 x[8] + 41 x[9] + 27 x[10] + 98 x[11] + 59 x[12]
   + 7 x[13] + 32 x[14] + 16 x[15] + 100 x[16] + 67 x[17] + 92 x[18]
   + 29 x[19] + 48 x[20] + 23 x[21] + 99 x[22] + 82 x[23] + 84 x[24]
   + 75 x[25] + 69 x[26] + 19 x[27] + 89 x[28] + 22 x[29] + 97 x[30]
   + 11 x[31] + 15 x[32] + 24 x[33] + 7 x[34] + 56 x[35] + 75 x[36]
   + 76 x[37] + 47 x[38] + 94 x[39] + 58 x[40] + 25 x[41] + 5 x[42]
   + 89 x[43] + 82 x[44] + 50 x[45] + 57 x[46] + 9 x[47] + 50 x[48]
   + 71 x[49] + 30 x[50] + 71 x[51] + 84 x[52] + 3 x[53] + 88 x[54]
   + 31 x[55] + 24 x[56] + 10 x[57] + 83 x[58] + 85 x[59] + 44 x[60]
   + 46 x[61] + 51 x[62] + 2 x[63] + 27 x[64] + 31 x[65] + 56 x[66]
   + 58 x[67] + 35 x[68] + 97 x[69] + 57 x[70] + 97 x[71] + 89 x[72]
   + 14 x[73] + 27 x[74] + 48 x[75] + 54 x[76] + 18 x[77] + 44 x[78]
   + 54 x[79] + 9 x[80] + 21 x[81] + 30 x[82] + 5 x[83] + 73 x[84]
   + 37 x[85] + 47 x[86] + 59 x[87] + 17 x[88] + 26 x[89] + 64 x[90]
   + 32 x[91] + 40 x[92] + 87 x[93] + 67 x[94] + 24 x[95] + 24 x[96]
   + 40 x[97] + 75 x[98] + 3 x[99] + 80 x[100] + 15 x[101] + 9 x[102]
   + 83 x[103] + 60 x[104] + 45 x[105] + 46 x[106] + 70 x[107] + 54 x[108]
   + 40 x[109] + 26 x[110] + 46 x[111] + 4 x[112] + 80 x[113] + 72 x[114]
   + 34 x[115] + 54 x[116] + 32 x[117] + 48 x[118] + 92 x[119] + 75 x[120]
   + 4 x[121] + 35 x[122] + 58 x[123] + 92 x[124] + 14 x[125] + 51 x[126]
   + 27 x[127] + 66 x[128] + 46 x[129] + 2.7 r[0] + 7.1 r[1] + 4.1 r[2]
   + 3 r[3] + 5.5 r[4] + 9.7 r[5] + 7.2 r[6] + 3.5 r[7] + 8 r[8] + 4.1 r[9]
   + 2.7 r[10] + 9.8 r[11] + 5.9 r[12] + 0.7 r[13] + 3.2 r[14] + 1.6 r[15]
   + 10 r[16] + 6.7 r[17] + 9.2 r[18] + 2.9 r[19] + 4.8 r[20] + 2.3 r[21]
   + 9.9 r[22] + 8.2 r[23] + 8.4 r[24] + 7.5 r[25] + 6.9 r[26] + 1.9 r[27]
   + 8.9 r[28] + 2.2 r[29] + 9.7 r[30] + 1.1 r[31] + 1.5 r[32] + 2.4 r[33]
   + 0.7 r[34] + 5.6 r[35] + 7.5 r[36] + 7.6 r[37] + 4.7 r[38] + 9.4 r[39]
   + 5.8 r[40] + 2.5 r[41] + 0.5 r[42] + 8.9 r[43] + 8.2 r[44] + 5 r[45]
   + 5.7 r[46] + 0.9 r[47] + 5 r[48] + 7.1 r[49] + 3 r[50] + 7.1 r[51]
   + 8.4 r[52] + 0.3 r[53] + 8.8 r[54] + 3.1 r[55] + 2.4 r[56] + r[57]
   + 8.3 r[58] + 8.5 r[59] + 4.4 r[60] + 4.6 r[61] + 5.1 r[62] + 0.2 r[63]
   + 2.7 r[64] + 3.1 r[65] + 5.6 r[66] + 5.8 r[67] + 3.5 r[68] + 9.7 r[69]
   + 5.7 r[70] + 9.7 r[71] + 8.9 r[72] + 1.4 r[73] + 2.7 r[74] + 4.8 r[75]
   + 5.4 r[76] + 1.8 r[77] + 4.4 r[78] + 5.4 r[79] + 0.9 r[80] + 2.1 r[81]
   + 3 r[82] + 0.5 r[83] + 7.3 r[84] + 3.7 r[85] + 4.7 r[86] + 5.9 r[87]
   + 1.7 r[88] + 2.6 r[89] + 6.4 r[90] + 3.2 r[91] + 4 r[92] + 8.7 r[93]
   + 6.7 r[94] + 2.4 r[95] + 2.4 r[96] + 4 r[97] + 7.5 r[98] + 0.3 r[99]
   + 8 r[100] + 1.5 r[101] + 0.9 r[102] + 8.3 r[103] + 6 r[104]
   + 4.5 r[105] + 4.6 r[106] + 7 r[107] + 5.4 r[108] + 4 r[109]
   + 2.6 r[110] + 4.6 r[111] + 0.4 r[112] + 8 r[113] + 7.2 r[114]
   + 3.4 r[115] + 5.4 r[116] + 3.2 r[117] + 4.8 r[118] + 9.2 r[119]
   + 7.5 r[120] + 0.4 r[121] + 3.5 r[122] + 5.8 r[123] + 9.2 r[124]
   + 1.4 r[125] + 5.1 r[126] + 2.7 r[127] + 6.6 r[128] + 4.6 r[129] <= 607
 primal_lower: 1.060871082051757 x[0] + 0.1628306289617483 x[1]
   + 2.166588295207459 x[2] + 4.392036204463623 x[3]
   + 4.491302764811492 x[4] + 1.684750552756274 x[5]
   + 4.020891707001705 x[6] + 3.032450207491431 x[7]
   + 0.0916059730826063 x[8] + 3.783506804511153 x[9]
   + 2.410058628962839 x[10] + 4.162824538250058 x[11]
   + 3.911811725965435 x[12] + 4.446421268561211 x[13]
   + 1.74370982186305 x[14] + 0.1284641142294404 x[15]
   + 1.410136213220469 x[16] + 1.902485172169851 x[17]
   + 4.466561440728864 x[18] + 2.010291635460413 x[19]
   + 4.112825975388312 x[20] + 1.252318518804681 x[21]
   + 3.508270934264572 x[22] + 0.0527889170972735 x[23]
   + 3.488182120425201 x[24] + 1.974426501536779 x[25]
   + 3.352698482344714 x[26] + 1.302712041713444 x[27]
   + 2.989258446714532 x[28] + 2.805623112279672 x[29]
   + 3.737929837300175 x[30] + 4.14653051110967 x[31]
   + 2.440631610874477 x[32] + 2.03129733687676 x[33]
   + 2.97343611898652 x[34] + 0.0583760276710451 x[35]
   + 3.122749006295192 x[36] + 2.885627211727073 x[37]
   + 1.706240150090474 x[38] + 4.301921973759424 x[39]
   + 3.026345349722337 x[40] + 2.557672665070977 x[41]
   + 0.5919472567257436 x[42] + 0.3341058527809096 x[43]
   + 3.26020054038506 x[44] + 3.067120092057815 x[45]
   + 0.1374138361505214 x[46] + 3.476198676172942 x[47]
   + 1.479686256801607 x[48] + 3.403473899189344 x[49]
   + 3.619022217290131 x[50] + 0.7574545515945433 x[51]
   + 1.224158312565705 x[52] + 0.7344370856385878 x[53]
   + 2.821459126562638 x[54] + 3.451008748587462 x[55]
   + 3.154415011925206 x[56] + 2.957203055814752 x[57]
   + 3.29832752775224 x[58] + 0.30305786771018 x[59]
   + 2.665197488573183 x[60] + 1.926688559776386 x[61]
   + 4.37808835792199 x[62] + 1.111478679998798 x[63]
   + 0.5880536531859754 x[64] + 0.4628083898918997 x[65]
   + 1.736404677065319 x[66] + 1.021873015822654 x[67]
   + 4.073274830193191 x[68] + 2.935564795655376 x[69]
   + 1.082264908717807 x[70] + 1.52260477851373 x[71]
   + 4.115119052865153 x[72] + 3.047548900725932 x[73]
   + 4.157437499764266 x[74] + 4.144185433226723 x[75]
   + 4.087911542594361 x[76] + 1.451993231309502 x[77]
   + 1.541757912150874 x[78] + 0.7980982653802288 x[79]
   + 0.5890125119493782 x[80] + 3.384454128802484 x[81]
   + 4.065218427798097 x[82] + 0.3376338322291956 x[83]
   + 0.6447890741344694 x[84] + 2.873125424093718 x[85]
   + 0.4760301386233272 x[86] + 2.191174703911271 x[87]
   + 0.6803313910961023 x[88] + 1.935030671561492 x[89]
   + 4.090736757331412 x[90] + 4.479742029926861 x[91]
   + 0.9284038378097976 x[92] + 3.159445708645173 x[93]
   + 1.875063794594752 x[94] + 0.422415872357448 x[95]
   + 3.00905731241289 x[96] + 3.79919081083257 x[97]
   + 2.432128213598977 x[98] + 0.2708689616051427 x[99]
   + 3.793612360942328 x[100] + 3.224624459710947 x[101]
   + 4.543687666554174 x[102] + 2.109817363577231 x[103]
   + 3.278971668180059 x[104] + 1.779798444020185 x[105]
   + 2.00450956809725 x[106] + 3.413068378379096 x[107]
   + 2.591020649219634 x[108] + 1.533888905762913 x[109]
   + 2.700551714799147 x[110] + 2.652663245116778 x[111]
   + 0.8334410542727831 x[112] + 3.732542415718334 x[113]
   + 0.4965329255777445 x[114] + 0.9784126114678772 x[115]
   + 3.577709559221662 x[116] + 3.989414651580488 x[117]
   + 2.35405817925976 x[118] + 2.375557404358733 x[119]
   + 1.916542433082673 x[120] + 0.4768767237008943 x[121]
   + 0.0707562241157104 x[122] + 0.1372204395608713 x[123]
   + 2.134960580979586 x[124] + 3.784080352918048 x[125]
   + 1.549451994751865 x[126] + 3.051376300386514 x[127]
   + 3.813870067769838 x[128] + 2.854548567827841 x[129] + 78 u[0]
   + 46 u[1] + 72 u[2] + 65 u[3] + 22 u[4] + 16 u[5] + 87 u[6] + 90 u[7]
   + 51 u[8] + 28 u[9] + 78 u[10] + 85 u[11] + 14 u[12] + 70 u[13]
   + 67 u[14] + 95 u[15] + 87 u[16] + 74 u[17] + 7 u[18] + 36 u[19]
   + 75 u[20] + 94 u[21] + 10 u[22] + 89 u[23] + 83 u[24] + 42 u[25]
   + 92 u[26] + 82 u[27] + 36 u[28] + 77 u[29] + 16 u[30] + 22 u[31]
   + 82 u[32] + 39 u[33] + 42 u[34] + 43 u[35] + 34 u[36] + 35 u[37]
   + 42 u[38] + 65 u[39] + 85 u[40] + 48 u[41] + 12 u[42] + 20 u[43]
   + 17 u[44] + u[45] + 28 u[46] + 8 u[47] + 61 u[48] + 90 u[49] + 5 u[50]
   + 58 u[51] + 31 u[52] + 22 u[53] + 43 u[54] + 30 u[55] + 27 u[56]
   + 13 u[57] + 22 u[58] + 8 u[59] + 67 u[60] + 53 u[61] + 22 u[62]
   + 45 u[63] + 50 u[64] + 30 u[65] + 19 u[66] + 17 u[67] + 74 u[68]
   + 24 u[69] + 72 u[70] + 84 u[71] + 36 u[72] + 81 u[73] + 70 u[74]
   + 31 u[75] + 21 u[76] + u[77] + 91 u[78] + 53 u[79] + 8 u[80] + 32 u[81]
   + 41 u[82] + 80 u[83] + 100 u[84] + 20 u[85] + 82 u[86] + 90 u[87]
   + 76 u[88] + 77 u[89] + 83 u[90] + 19 u[91] + 83 u[92] + 70 u[93]
   + 26 u[94] + 19 u[95] + 15 u[96] + 31 u[97] + 2 u[98] + 34 u[99]
   + 87 u[100] + 70 u[101] + 56 u[102] + 94 u[103] + 95 u[104] + 64 u[105]
   + 37 u[106] + 69 u[107] + 97 u[108] + 23 u[109] + 53 u[110] + u[111]
   + 11 u[112] + 75 u[113] + 39 u[114] + u[115] + 33 u[116] + 51 u[117]
   + 3 u[118] + 47 u[119] + 74 u[120] + 83 u[121] + 38 u[122] + 81 u[123]
   + 31 u[124] + 13 u[125] + 26 u[126] + 22 u[127] + 25 u[128] + 17 u[129]
   <= 37590
 mccormick1[0]: - u[0] + r[0] <= 0
 mccormick1[1]: - u[1] + r[1] <= 0
 mccormick1[2]: - u[2] + r[2] <= 0
 mccormick1[3]: - u[3] + r[3] <= 0
 mccormick1[4]: - u[4] + r[4] <= 0
 mccormick1[5]: - u[5] + r[5] <= 0
 mccormick1[6]: - u[6] + r[6] <= 0
 mccormick1[7]: - u[7] + r[7] <= 0
 mccormick1[8]: - u[8] + r[8] <= 0
 mccormick1[9]: - u[9] + r[9] <= 0
 mccormick1[10]: - u[10] + r[10] <= 0
 mccormick1[11]: - u[11] + r[11] <= 0
 mccormick1[12]: - u[12] + r[12] <= 0
 mccormick1[13]: - u[13] + r[13] <= 0
 mccormick1[14]: - u[14] + r[14] <= 0
 mccormick1[15]: - u[15] + r[15] <= 0
 mccormick1[16]: - u[16] + r[16] <= 0
 mccormick1[17]: - u[17] + r[17] <= 0
 mccormick1[18]: - u[18] + r[18] <= 0
 mccormick1[19]: - u[19] + r[19] <= 0
 mccormick1[20]: - u[20] + r[20] <= 0
 mccormick1[21]: - u[21] + r[21] <= 0
 mccormick1[22]: - u[22] + r[22] <= 0
 mccormick1[23]: - u[23] + r[23] <= 0
 mccormick1[24]: - u[24] + r[24] <= 0
 mccormick1[25]: - u[25] + r[25] <= 0
 mccormick1[26]: - u[26] + r[26] <= 0
 mccormick1[27]: - u[27] + r[27] <= 0
 mccormick1[28]: - u[28] + r[28] <= 0
 mccormick1[29]: - u[29] + r[29] <= 0
 mccormick1[30]: - u[30] + r[30] <= 0
 mccormick1[31]: - u[31] + r[31] <= 0
 mccormick1[32]: - u[32] + r[32] <= 0
 mccormick1[33]: - u[33] + r[33] <= 0
 mccormick1[34]: - u[34] + r[34] <= 0
 mccormick1[35]: - u[35] + r[35] <= 0
 mccormick1[36]: - u[36] + r[36] <= 0
 mccormick1[37]: - u[37] + r[37] <= 0
 mccormick1[38]: - u[38] + r[38] <= 0
 mccormick1[39]: - u[39] + r[39] <= 0
 mccormick1[40]: - u[40] + r[40] <= 0
 mccormick1[41]: - u[41] + r[41] <= 0
 mccormick1[42]: - u[42] + r[42] <= 0
 mccormick1[43]: - u[43] + r[43] <= 0
 mccormick1[44]: - u[44] + r[44] <= 0
 mccormick1[45]: - u[45] + r[45] <= 0
 mccormick1[46]: - u[46] + r[46] <= 0
 mccormick1[47]: - u[47] + r[47] <= 0
 mccormick1[48]: - u[48] + r[48] <= 0
 mccormick1[49]: - u[49] + r[49] <= 0
 mccormick1[50]: - u[50] + r[50] <= 0
 mccormick1[51]: - u[51] + r[51] <= 0
 mccormick1[52]: - u[52] + r[52] <= 0
 mccormick1[53]: - u[53] + r[53] <= 0
 mccormick1[54]: - u[54] + r[54] <= 0
 mccormick1[55]: - u[55] + r[55] <= 0
 mccormick1[56]: - u[56] + r[56] <= 0
 mccormick1[57]: - u[57] + r[57] <= 0
 mccormick1[58]: - u[58] + r[58] <= 0
 mccormick1[59]: - u[59] + r[59] <= 0
 mccormick1[60]: - u[60] + r[60] <= 0
 mccormick1[61]: - u[61] + r[61] <= 0
 mccormick1[62]: - u[62] + r[62] <= 0
 mccormick1[63]: - u[63] + r[63] <= 0
 mccormick1[64]: - u[64] + r[64] <= 0
 mccormick1[65]: - u[65] + r[65] <= 0
 mccormick1[66]: - u[66] + r[66] <= 0
 mccormick1[67]: - u[67] + r[67] <= 0
 mccormick1[68]: - u[68] + r[68] <= 0
 mccormick1[69]: - u[69] + r[69] <= 0
 mccormick1[70]: - u[70] + r[70] <= 0
 mccormick1[71]: - u[71] + r[71] <= 0
 mccormick1[72]: - u[72] + r[72] <= 0
 mccormick1[73]: - u[73] + r[73] <= 0
 mccormick1[74]: - u[74] + r[74] <= 0
 mccormick1[75]: - u[75] + r[75] <= 0
 mccormick1[76]: - u[76] + r[76] <= 0
 mccormick1[77]: - u[77] + r[77] <= 0
 mccormick1[78]: - u[78] + r[78] <= 0
 mccormick1[79]: - u[79] + r[79] <= 0
 mccormick1[80]: - u[80] + r[80] <= 0
 mccormick1[81]: - u[81] + r[81] <= 0
 mccormick1[82]: - u[82] + r[82] <= 0
 mccormick1[83]: - u[83] + r[83] <= 0
 mccormick1[84]: - u[84] + r[84] <= 0
 mccormick1[85]: - u[85] + r[85] <= 0
 mccormick1[86]: - u[86] + r[86] <= 0
 mccormick1[87]: - u[87] + r[87] <= 0
 mccormick1[88]: - u[88] + r[88] <= 0
 mccormick1[89]: - u[89] + r[89] <= 0
 mccormick1[90]: - u[90] + r[90] <= 0
 mccormick1[91]: - u[91] + r[91] <= 0
 mccormick1[92]: - u[92] + r[92] <= 0
 mccormick1[93]: - u[93] + r[93] <= 0
 mccormick1[94]: - u[94] + r[94] <= 0
 mccormick1[95]: - u[95] + r[95] <= 0
 mccormick1[96]: - u[96] + r[96] <= 0
 mccormick1[97]: - u[97] + r[97] <= 0
 mccormick1[98]: - u[98] + r[98] <= 0
 mccormick1[99]: - u[99] + r[99] <= 0
 mccormick1[100]: - u[100] + r[100] <= 0
 mccormick1[101]: - u[101] + r[101] <= 0
 mccormick1[102]: - u[102] + r[102] <= 0
 mccormick1[103]: - u[103] + r[103] <= 0
 mccormick1[104]: - u[104] + r[104] <= 0
 mccormick1[105]: - u[105] + r[105] <= 0
 mccormick1[106]: - u[106] + r[106] <= 0
 mccormick1[107]: - u[107] + r[107] <= 0
 mccormick1[108]: - u[108] + r[108] <= 0
 mccormick1[109]: - u[109] + r[109] <= 0
 mccormick1[110]: - u[110] + r[110] <= 0
 mccormick1[111]: - u[111] + r[111] <= 0
 mccormick1[112]: - u[112] + r[112] <= 0
 mccormick1[113]: - u[113] + r[113] <= 0
 mccormick1[114]: - u[114] + r[114] <= 0
 mccormick1[115]: - u[115] + r[115] <= 0
 mccormick1[116]: - u[116] + r[116] <= 0
 mccormick1[117]: - u[117] + r[117] <= 0
 mccormick1[118]: - u[118] + r[118] <= 0
 mccormick1[119]: - u[119] + r[119] <= 0
 mccormick1[120]: - u[120] + r[120] <= 0
 mccormick1[121]: - u[121] + r[121] <= 0
 mccormick1[122]: - u[122] + r[122] <= 0
 mccormick1[123]: - u[123] + r[123] <= 0
 mccormick1[124]: - u[124] + r[124] <= 0
 mccormick1[125]: - u[125] + r[125] <= 0
 mccormick1[126]: - u[126] + r[126] <= 0
 mccormick1[127]: - u[127] + r[127] <= 0
 mccormick1[128]: - u[128] + r[128] <= 0
 mccormick1[129]: - u[129] + r[129] <= 0
 mccormick2[0]: - x[0] + r[0] <= 0
 mccormick2[1]: - x[1] + r[1] <= 0
 mccormick2[2]: - x[2] + r[2] <= 0
 mccormick2[3]: - x[3] + r[3] <= 0
 mccormick2[4]: - x[4] + r[4] <= 0
 mccormick2[5]: - x[5] + r[5] <= 0
 mccormick2[6]: - x[6] + r[6] <= 0
 mccormick2[7]: - x[7] + r[7] <= 0
 mccormick2[8]: - x[8] + r[8] <= 0
 mccormick2[9]: - x[9] + r[9] <= 0
 mccormick2[10]: - x[10] + r[10] <= 0
 mccormick2[11]: - x[11] + r[11] <= 0
 mccormick2[12]: - x[12] + r[12] <= 0
 mccormick2[13]: - x[13] + r[13] <= 0
 mccormick2[14]: - x[14] + r[14] <= 0
 mccormick2[15]: - x[15] + r[15] <= 0
 mccormick2[16]: - x[16] + r[16] <= 0
 mccormick2[17]: - x[17] + r[17] <= 0
 mccormick2[18]: - x[18] + r[18] <= 0
 mccormick2[19]: - x[19] + r[19] <= 0
 mccormick2[20]: - x[20] + r[20] <= 0
 mccormick2[21]: - x[21] + r[21] <= 0
 mccormick2[22]: - x[22] + r[22] <= 0
 mccormick2[23]: - x[23] + r[23] <= 0
 mccormick2[24]: - x[24] + r[24] <= 0
 mccormick2[25]: - x[25] + r[25] <= 0
 mccormick2[26]: - x[26] + r[26] <= 0
 mccormick2[27]: - x[27] + r[27] <= 0
 mccormick2[28]: - x[28] + r[28] <= 0
 mccormick2[29]: - x[29] + r[29] <= 0
 mccormick2[30]: - x[30] + r[30] <= 0
 mccormick2[31]: - x[31] + r[31] <= 0
 mccormick2[32]: - x[32] + r[32] <= 0
 mccormick2[33]: - x[33] + r[33] <= 0
 mccormick2[34]: - x[34] + r[34] <= 0
 mccormick2[35]: - x[35] + r[35] <= 0
 mccormick2[36]: - x[36] + r[36] <= 0
 mccormick2[37]: - x[37] + r[37] <= 0
 mccormick2[38]: - x[38] + r[38] <= 0
 mccormick2[39]: - x[39] + r[39] <= 0
 mccormick2[40]: - x[40] + r[40] <= 0
 mccormick2[41]: - x[41] + r[41] <= 0
 mccormick2[42]: - x[42] + r[42] <= 0
 mccormick2[43]: - x[43] + r[43] <= 0
 mccormick2[44]: - x[44] + r[44] <= 0
 mccormick2[45]: - x[45] + r[45] <= 0
 mccormick2[46]: - x[46] + r[46] <= 0
 mccormick2[47]: - x[47] + r[47] <= 0
 mccormick2[48]: - x[48] + r[48] <= 0
 mccormick2[49]: - x[49] + r[49] <= 0
 mccormick2[50]: - x[50] + r[50] <= 0
 mccormick2[51]: - x[51] + r[51] <= 0
 mccormick2[52]: - x[52] + r[52] <= 0
 mccormick2[53]: - x[53] + r[53] <= 0
 mccormick2[54]: - x[54] + r[54] <= 0
 mccormick2[55]: - x[55] + r[55] <= 0
 mccormick2[56]: - x[56] + r[56] <= 0
 mccormick2[57]: - x[57] + r[57] <= 0
 mccormick2[58]: - x[58] + r[58] <= 0
 mccormick2[59]: - x[59] + r[59] <= 0
 mccormick2[60]: - x[60] + r[60] <= 0
 mccormick2[61]: - x[61] + r[61] <= 0
 mccormick2[62]: - x[62] + r[62] <= 0
 mccormick2[63]: - x[63] + r[63] <= 0
 mccormick2[64]: - x[64] + r[64] <= 0
 mccormick2[65]: - x[65] + r[65] <= 0
 mccormick2[66]: - x[66] + r[66] <= 0
 mccormick2[67]: - x[67] + r[67] <= 0
 mccormick2[68]: - x[68] + r[68] <= 0
 mccormick2[69]: - x[69] + r[69] <= 0
 mccormick2[70]: - x[70] + r[70] <= 0
 mccormick2[71]: - x[71] + r[71] <= 0
 mccormick2[72]: - x[72] + r[72] <= 0
 mccormick2[73]: - x[73] + r[73] <= 0
 mccormick2[74]: - x[74] + r[74] <= 0
 mccormick2[75]: - x[75] + r[75] <= 0
 mccormick2[76]: - x[76] + r[76] <= 0
 mccormick2[77]: - x[77] + r[77] <= 0
 mccormick2[78]: - x[78] + r[78] <= 0
 mccormick2[79]: - x[79] + r[79] <= 0
 mccormick2[80]: - x[80] + r[80] <= 0
 mccormick2[81]: - x[81] + r[81] <= 0
 mccormick2[82]: - x[82] + r[82] <= 0
 mccormick2[83]: - x[83] + r[83] <= 0
 mccormick2[84]: - x[84] + r[84] <= 0
 mccormick2[85]: - x[85] + r[85] <= 0
 mccormick2[86]: - x[86] + r[86] <= 0
 mccormick2[87]: - x[87] + r[87] <= 0
 mccormick2[88]: - x[88] + r[88] <= 0
 mccormick2[89]: - x[89] + r[89] <= 0
 mccormick2[90]: - x[90] + r[90] <= 0
 mccormick2[91]: - x[91] + r[91] <= 0
 mccormick2[92]: - x[92] + r[92] <= 0
 mccormick2[93]: - x[93] + r[93] <= 0
 mccormick2[94]: - x[94] + r[94] <= 0
 mccormick2[95]: - x[95] + r[95] <= 0
 mccormick2[96]: - x[96] + r[96] <= 0
 mccormick2[97]: - x[97] + r[97] <= 0
 mccormick2[98]: - x[98] + r[98] <= 0
 mccormick2[99]: - x[99] + r[99] <= 0
 mccormick2[100]: - x[100] + r[100] <= 0
 mccormick2[101]: - x[101] + r[101] <= 0
 mccormick2[102]: - x[102] + r[102] <= 0
 mccormick2[103]: - x[103] + r[103] <= 0
 mccormick2[104]: - x[104] + r[104] <= 0
 mccormick2[105]: - x[105] + r[105] <= 0
 mccormick2[106]: - x[106] + r[106] <= 0
 mccormick2[107]: - x[107] + r[107] <= 0
 mccormick2[108]: - x[108] + r[108] <= 0
 mccormick2[109]: - x[109] + r[109] <= 0
 mccormick2[110]: - x[110] + r[110] <= 0
 mccormick2[111]: - x[111] + r[111] <= 0
 mccormick2[112]: - x[112] + r[112] <= 0
 mccormick2[113]: - x[113] + r[113] <= 0
 mccormick2[114]: - x[114] + r[114] <= 0
 mccormick2[115]: - x[115] + r[115] <= 0
 mccormick2[116]: - x[116] + r[116] <= 0
 mccormick2[117]: - x[117] + r[117] <= 0
 mccormick2[118]: - x[118] + r[118] <= 0
 mccormick2[119]: - x[119] + r[119] <= 0
 mccormick2[120]: - x[120] + r[120] <= 0
 mccormick2[121]: - x[121] + r[121] <= 0
 mccormick2[122]: - x[122] + r[122] <= 0
 mccormick2[123]: - x[123] + r[123] <= 0
 mccormick2[124]: - x[124] + r[124] <= 0
 mccormick2[125]: - x[125] + r[125] <= 0
 mccormick2[126]: - x[126] + r[126] <= 0
 mccormick2[127]: - x[127] + r[127] <= 0
 mccormick2[128]: - x[128] + r[128] <= 0
 mccormick2[129]: - x[129] + r[129] <= 0
 mccormick3[0]: x[0] + u[0] - r[0] <= 1
 mccormick3[1]: x[1] + u[1] - r[1] <= 1
 mccormick3[2]: x[2] + u[2] - r[2] <= 1
 mccormick3[3]: x[3] + u[3] - r[3] <= 1
 mccormick3[4]: x[4] + u[4] - r[4] <= 1
 mccormick3[5]: x[5] + u[5] - r[5] <= 1
 mccormick3[6]: x[6] + u[6] - r[6] <= 1
 mccormick3[7]: x[7] + u[7] - r[7] <= 1
 mccormick3[8]: x[8] + u[8] - r[8] <= 1
 mccormick3[9]: x[9] + u[9] - r[9] <= 1
 mccormick3[10]: x[10] + u[10] - r[10] <= 1
 mccormick3[11]: x[11] + u[11] - r[11] <= 1
 mccormick3[12]: x[12] + u[12] - r[12] <= 1
 mccormick3[13]: x[13] + u[13] - r[13] <= 1
 mccormick3[14]: x[14] + u[14] - r[14] <= 1
 mccormick3[15]: x[15] + u[15] - r[15] <= 1
 mccormick3[16]: x[16] + u[16] - r[16] <= 1
 mccormick3[17]: x[17] + u[17] - r[17] <= 1
 mccormick3[18]: x[18] + u[18] - r[18] <= 1
 mccormick3[19]: x[19] + u[19] - r[19] <= 1
 mccormick3[20]: x[20] + u[20] - r[20] <= 1
 mccormick3[21]: x[21] + u[21] - r[21] <= 1
 mccormick3[22]: x[22] + u[22] - r[22] <= 1
 mccormick3[23]: x[23] + u[23] - r[23] <= 1
 mccormick3[24]: x[24] + u[24] - r[24] <= 1
 mccormick3[25]: x[25] + u[25] - r[25] <= 1
 mccormick3[26]: x[26] + u[26] - r[26] <= 1
 mccormick3[27]: x[27] + u[27] - r[27] <= 1
 mccormick3[28]: x[28] + u[28] - r[28] <= 1
 mccormick3[29]: x[29] + u[29] - r[29] <= 1
 mccormick3[30]: x[30] + u[30] - r[30] <= 1
 mccormick3[31]: x[31] + u[31] - r[31] <= 1
 mccormick3[32]: x[32] + u[32] - r[32] <= 1
 mccormick3[33]: x[33] + u[33] - r[33] <= 1
 mccormick3[34]: x[34] + u[34] - r[34] <= 1
 mccormick3[35]: x[35] + u[35] - r[35] <= 1
 mccormick3[36]: x[36] + u[36] - r[36] <= 1
 mccormick3[37]: x[37] + u[37] - r[37] <= 1
 mccormick3[38]: x[38] + u[38] - r[38] <= 1
 mccormick3[39]: x[39] + u[39] - r[39] <= 1
 mccormick3[40]: x[40] + u[40] - r[40] <= 1
 mccormick3[41]: x[41] + u[41] - r[41] <= 1
 mccormick3[42]: x[42] + u[42] - r[42] <= 1
 mccormick3[43]: x[43] + u[43] - r[43] <= 1
 mccormick3[44]: x[44] + u[44] - r[44] <= 1
 mccormick3[45]: x[45] + u[45] - r[45] <= 1
 mccormick3[46]: x[46] + u[46] - r[46] <= 1
 mccormick3[47]: x[47] + u[47] - r[47] <= 1
 mccormick3[48]: x[48] + u[48] - r[48] <= 1
 mccormick3[49]: x[49] + u[49] - r[49] <= 1
 mccormick3[50]: x[50] + u[50] - r[50] <= 1
 mccormick3[51]: x[51] + u[51] - r[51] <= 1
 mccormick3[52]: x[52] + u[52] - r[52] <= 1
 mccormick3[53]: x[53] + u[53] - r[53] <= 1
 mccormick3[54]: x[54] + u[54] - r[54] <= 1
 mccormick3[55]: x[55] + u[55] - r[55] <= 1
 mccormick3[56]: x[56] + u[56] - r[56] <= 1
 mccormick3[57]: x[57] + u[57] - r[57] <= 1
 mccormick3[58]: x[58] + u[58] - r[58] <= 1
 mccormick3[59]: x[59] + u[59] - r[59] <= 1
 mccormick3[60]: x[60] + u[60] - r[60] <= 1
 mccormick3[61]: x[61] + u[61] - r[61] <= 1
 mccormick3[62]: x[62] + u[62] - r[62] <= 1
 mccormick3[63]: x[63] + u[63] - r[63] <= 1
 mccormick3[64]: x[64] + u[64] - r[64] <= 1
 mccormick3[65]: x[65] + u[65] - r[65] <= 1
 mccormick3[66]: x[66] + u[66] - r[66] <= 1
 mccormick3[67]: x[67] + u[67] - r[67] <= 1
 mccormick3[68]: x[68] + u[68] - r[68] <= 1
 mccormick3[69]: x[69] + u[69] - r[69] <= 1
 mccormick3[70]: x[70] + u[70] - r[70] <= 1
 mccormick3[71]: x[71] + u[71] - r[71] <= 1
 mccormick3[72]: x[72] + u[72] - r[72] <= 1
 mccormick3[73]: x[73] + u[73] - r[73] <= 1
 mccormick3[74]: x[74] + u[74] - r[74] <= 1
 mccormick3[75]: x[75] + u[75] - r[75] <= 1
 mccormick3[76]: x[76] + u[76] - r[76] <= 1
 mccormick3[77]: x[77] + u[77] - r[77] <= 1
 mccormick3[78]: x[78] + u[78] - r[78] <= 1
 mccormick3[79]: x[79] + u[79] - r[79] <= 1
 mccormick3[80]: x[80] + u[80] - r[80] <= 1
 mccormick3[81]: x[81] + u[81] - r[81] <= 1
 mccormick3[82]: x[82] + u[82] - r[82] <= 1
 mccormick3[83]: x[83] + u[83] - r[83] <= 1
 mccormick3[84]: x[84] + u[84] - r[84] <= 1
 mccormick3[85]: x[85] + u[85] - r[85] <= 1
 mccormick3[86]: x[86] + u[86] - r[86] <= 1
 mccormick3[87]: x[87] + u[87] - r[87] <= 1
 mccormick3[88]: x[88] + u[88] - r[88] <= 1
 mccormick3[89]: x[89] + u[89] - r[89] <= 1
 mccormick3[90]: x[90] + u[90] - r[90] <= 1
 mccormick3[91]: x[91] + u[91] - r[91] <= 1
 mccormick3[92]: x[92] + u[92] - r[92] <= 1
 mccormick3[93]: x[93] + u[93] - r[93] <= 1
 mccormick3[94]: x[94] + u[94] - r[94] <= 1
 mccormick3[95]: x[95] + u[95] - r[95] <= 1
 mccormick3[96]: x[96] + u[96] - r[96] <= 1
 mccormick3[97]: x[97] + u[97] - r[97] <= 1
 mccormick3[98]: x[98] + u[98] - r[98] <= 1
 mccormick3[99]: x[99] + u[99] - r[99] <= 1
 mccormick3[100]: x[100] + u[100] - r[100] <= 1
 mccormick3[101]: x[101] + u[101] - r[101] <= 1
 mccormick3[102]: x[102] + u[102] - r[102] <= 1
 mccormick3[103]: x[103] + u[103] - r[103] <= 1
 mccormick3[104]: x[104] + u[104] - r[104] <= 1
 mccormick3[105]: x[105] + u[105] - r[105] <= 1
 mccormick3[106]: x[106] + u[106] - r[106] <= 1
 mccormick3[107]: x[107] + u[107] - r[107] <= 1
 mccormick3[108]: x[108] + u[108] - r[108] <= 1
 mccormick3[109]: x[109] + u[109] - r[109] <= 1
 mccormick3[110]: x[110] + u[110] - r[110] <= 1
 mccormick3[111]: x[111] + u[111] - r[111] <= 1
 mccormick3[112]: x[112] + u[112] - r[112] <= 1
 mccormick3[113]: x[113] + u[113] - r[113] <= 1
 mccormick3[114]: x[114] + u[114] - r[114] <= 1
 mccormick3[115]: x[115] + u[115] - r[115] <= 1
 mccormick3[116]: x[116] + u[116] - r[116] <= 1
 mccormick3[117]: x[117] + u[117] - r[117] <= 1
 mccormick3[118]: x[118] + u[118] - r[118] <= 1
 mccormick3[119]: x[119] + u[119] - r[119] <= 1
 mccormick3[120]: x[120] + u[120] - r[120] <= 1
 mccormick3[121]: x[121] + u[121] - r[121] <= 1
 mccormick3[122]: x[122] + u[122] - r[122] <= 1
 mccormick3[123]: x[123] + u[123] - r[123] <= 1
 mccormick3[124]: x[124] + u[124] - r[124] <= 1
 mccormick3[125]: x[125] + u[125] - r[125] <= 1
 mccormick3[126]: x[126] + u[126] - r[126] <= 1
 mccormick3[127]: x[127] + u[127] - r[127] <= 1
 mccormick3[128]: x[128] + u[128] - r[128] <= 1
 mccormick3[129]: x[129] + u[129] - r[129] <= 1
Bounds
Binaries
 x[0] x[1] x[2] x[3] x[4] x[5] x[6] x[7] x[8] x[9] x[10] x[11] x[12] x[13]
 x[14] x[15] x[16] x[17] x[18] x[19] x[20] x[21] x[22] x[23] x[24] x[25]
 x[26] x[27] x[28] x[29] x[30] x[31] x[32] x[33] x[34] x[35] x[36] x[37]
 x[38] x[39] x[40] x[41] x[42] x[43] x[44] x[45] x[46] x[47] x[48] x[49]
 x[50] x[51] x[52] x[53] x[54] x[55] x[56] x[57] x[58] x[59] x[60] x[61]
 x[62] x[63] x[64] x[65] x[66] x[67] x[68] x[69] x[70] x[71] x[72] x[73]
 x[74] x[75] x[76] x[77] x[78] x[79] x[80] x[81] x[82] x[83] x[84] x[85]
 x[86] x[87] x[88] x[89] x[90] x[91] x[92] x[93] x[94] x[95] x[96] x[97]
 x[98] x[99] x[100] x[101] x[102] x[103] x[104] x[105] x[106] x[107] x[108]
 x[109] x[110] x[111] x[112] x[113] x[114] x[115] x[116] x[117] x[118]
 x[119] x[120] x[121] x[122] x[123] x[124] x[125] x[126] x[127] x[128]
 x[129] u[0] u[1] u[2] u[3] u[4] u[5] u[6] u[7] u[8] u[9] u[10] u[11] u[12]
 u[13] u[14] u[15] u[16] u[17] u[18] u[19] u[20] u[21] u[22] u[23] u[24]
 u[25] u[26] u[27] u[28] u[29] u[30] u[31] u[32] u[33] u[34] u[35] u[36]
 u[37] u[38] u[39] u[40] u[41] u[42] u[43] u[44] u[45] u[46] u[47] u[48]
 u[49] u[50] u[51] u[52] u[53] u[54] u[55] u[56] u[57] u[58] u[59] u[60]
 u[61] u[62] u[63] u[64] u[65] u[66] u[67] u[68] u[69] u[70] u[71] u[72]
 u[73] u[74] u[75] u[76] u[77] u[78] u[79] u[80] u[81] u[82] u[83] u[84]
 u[85] u[86] u[87] u[88] u[89] u[90] u[91] u[92] u[93] u[94] u[95] u[96]
 u[97] u[98] u[99] u[100] u[101] u[102] u[103] u[104] u[105] u[106] u[107]
 u[108] u[109] u[110] u[111] u[112] u[113] u[114] u[115] u[116] u[117]
 u[118] u[119] u[120] u[121] u[122] u[123] u[124] u[125] u[126] u[127]
 u[128] u[129] r[0] r[1] r[2] r[3] r[4] r[5] r[6] r[7] r[8] r[9] r[10]
 r[11] r[12] r[13] r[14] r[15] r[16] r[17] r[18] r[19] r[20] r[21] r[22]
 r[23] r[24] r[25] r[26] r[27] r[28] r[29] r[30] r[31] r[32] r[33] r[34]
 r[35] r[36] r[37] r[38] r[39] r[40] r[41] r[42] r[43] r[44] r[45] r[46]
 r[47] r[48] r[49] r[50] r[51] r[52] r[53] r[54] r[55] r[56] r[57] r[58]
 r[59] r[60] r[61] r[62] r[63] r[64] r[65] r[66] r[67] r[68] r[69] r[70]
 r[71] r[72] r[73] r[74] r[75] r[76] r[77] r[78] r[79] r[80] r[81] r[82]
 r[83] r[84] r[85] r[86] r[87] r[88] r[89] r[90] r[91] r[92] r[93] r[94]
 r[95] r[96] r[97] r[98] r[99] r[100] r[101] r[102] r[103] r[104] r[105]
 r[106] r[107] r[108] r[109] r[110] r[111] r[112] r[113] r[114] r[115]
 r[116] r[117] r[118] r[119] r[120] r[121] r[122] r[123] r[124] r[125]
 r[126] r[127] r[128] r[129]
End
