instances/knapsack/discrete/knapsack_130_20.kp
14544
130
607

27 2.7 1
71 7.1 70
41 4.1 91
30 3.0 7
55 5.5 81
97 9.7 36
72 7.2 33
35 3.5 15
80 8.0 82
41 4.1 38
27 2.7 58
98 9.8 6
59 5.9 26
7 0.7 1
32 3.2 98
16 1.6 51
100 10.0 41
67 6.7 53
92 9.2 38
29 2.9 89
48 4.8 9
23 2.3 2
99 9.9 27
82 8.2 43
84 8.4 68
75 7.5 62
69 6.9 31
19 1.9 63
89 8.9 13
22 2.2 32
97 9.7 16
11 1.1 27
15 1.5 27
24 2.4 14
7 0.7 75
56 5.6 72
75 7.5 48
76 7.6 82
47 4.7 50
94 9.4 31
58 5.8 47
25 2.5 21
5 0.5 85
89 8.9 78
82 8.2 6
50 5.0 6
57 5.7 72
9 0.9 100
50 5.0 12
71 7.1 65
30 3.0 10
71 7.1 78
84 8.4 42
3 0.3 60
88 8.8 43
31 3.1 21
24 2.4 26
10 1.0 27
83 8.3 63
85 8.5 62
44 4.4 15
46 4.6 93
51 5.1 41
2 0.2 41
27 2.7 98
31 3.1 76
56 5.6 4
58 5.8 17
35 3.5 4
97 9.7 69
57 5.7 20
97 9.7 46
89 8.9 48
14 1.4 97
27 2.7 22
48 4.8 85
54 5.4 77
18 1.8 92
44 4.4 39
54 5.4 31
9 0.9 94
21 2.1 29
30 3.0 69
5 0.5 81
73 7.3 84
37 3.7 8
47 4.7 97
59 5.9 50
17 1.7 71
26 2.6 70
64 6.4 65
32 3.2 29
40 4.0 97
87 8.7 16
67 6.7 83
24 2.4 18
24 2.4 52
40 4.0 7
75 7.5 92
3 0.3 48
80 8.0 40
15 1.5 21
9 0.9 30
83 8.3 57
60 6.0 90
45 4.5 30
46 4.6 45
70 7.0 80
54 5.4 81
40 4.0 64
26 2.6 77
46 4.6 41
4 0.4 73
80 8.0 43
72 7.2 69
34 3.4 100
54 5.4 98
32 3.2 100
48 4.8 25
92 9.2 82
75 7.5 89
4 0.4 46
35 3.5 53
58 5.8 66
92 9.2 15
14 1.4 60
51 5.1 64
27 2.7 9
66 6.6 27
46 4.6 4

37590
594

[1.060871082051757 0.1628306289617483 2.1665882952074593 4.392036204463623 4.4913027648114925 1.684750552756274 4.020891707001705 3.032450207491431 0.09160597308260633 3.783506804511153 2.410058628962839 4.162824538250058 3.9118117259654355 4.4464212685612114 1.7437098218630498 0.1284641142294404 1.410136213220469 1.902485172169851 4.466561440728864 2.0102916354604132 4.112825975388312 1.2523185188046808 3.5082709342645724 0.052788917097273486 3.4881821204252006 1.9744265015367786 3.352698482344714 1.302712041713444 2.989258446714532 2.8056231122796724 3.7379298373001753 4.14653051110967 2.440631610874477 2.03129733687676 2.9734361189865197 0.05837602767104511 3.1227490062951917 2.8856272117270727 1.7062401500904743 4.301921973759424 3.0263453497223374 2.5576726650709767 0.5919472567257436 0.3341058527809096 3.2602005403850605 3.0671200920578148 0.1374138361505214 3.476198676172942 1.4796862568016074 3.403473899189344 3.6190222172901314 0.7574545515945433 1.2241583125657054 0.7344370856385878 2.821459126562638 3.4510087485874616 3.154415011925206 2.9572030558147517 3.2983275277522397 0.30305786771017995 2.6651974885731833 1.9266885597763859 4.37808835792199 1.111478679998798 0.5880536531859754 0.4628083898918997 1.736404677065319 1.0218730158226543 4.073274830193191 2.9355647956553756 1.0822649087178073 1.52260477851373 4.115119052865153 3.047548900725932 4.157437499764266 4.144185433226723 4.087911542594361 1.4519932313095016 1.5417579121508738 0.7980982653802288 0.5890125119493782 3.3844541288024836 4.065218427798097 0.33763383222919563 0.6447890741344694 2.8731254240937183 0.47603013862332716 2.1911747039112712 0.6803313910961023 1.935030671561492 4.0907367573314115 4.479742029926861 0.9284038378097976 3.1594457086451726 1.875063794594752 0.422415872357448 3.00905731241289 3.79919081083257 2.4321282135989772 0.2708689616051427 3.7936123609423276 3.2246244597109475 4.543687666554174 2.1098173635772315 3.278971668180059 1.7797984440201846 2.00450956809725 3.4130683783790965 2.591020649219634 1.533888905762913 2.700551714799147 2.6526632451167784 0.8334410542727831 3.7325424157183344 0.4965329255777445 0.9784126114678772 3.5777095592216623 3.989414651580488 2.35405817925976 2.3755574043587333 1.9165424330826735 0.47687672370089434 0.07075622411571035 0.13722043956087135 2.1349605809795857 3.7840803529180485 1.5494519947518648 3.0513763003865138 3.813870067769838 2.854548567827841]

[78 46 72 65 22 16 87 90 51 28 78 85 14 70 67 95 87 74 7 36 75 94 10 89 83 42 92 82 36 77 16 22 82 39 42 43 34 35 42 65 85 48 12 20 17 1 28 8 61 90 5 58 31 22 43 30 27 13 22 8 67 53 22 45 50 30 19 17 74 24 72 84 36 81 70 31 21 1 91 53 8 32 41 80 100 20 82 90 76 77 83 19 83 70 26 19 15 31 2 34 87 70 56 94 95 64 37 69 97 23 53 1 11 75 39 1 33 51 3 47 74 83 38 81 31 13 26 22 25 17]
